200
150 150
1 105 716
2 105 850
3 105 650
4 104 657
5 104 299
6 104 496
7 103 943
8 103 489
9 101 529
10 101 726
11 101 763
12 100 443
13 100 134
14 100 476
15 99 451
16 99 997
17 99 638
18 99 743
19 98 616
20 98 803
21 97 203
22 96 322
23 96 621
24 95 898
25 95 796
26 95 877
27 95 43
28 95 718
29 95 774
30 92 299
31 92 570
32 92 840
33 92 566
34 91 317
35 91 485
36 90 34
37 88 609
38 88 671
39 88 594
40 88 519
41 87 487
42 87 194
43 86 215
44 85 21
45 84 109
46 84 57
47 83 883
48 83 471
49 83 940
50 83 377
51 82 550
52 82 445
53 81 781
54 81 981
55 81 836
56 80 26
57 79 579
58 79 87
59 79 389
60 78 719
61 78 2
62 77 340
63 77 231
64 77 20
65 77 113
66 76 562
67 76 294
68 76 641
69 75 970
70 74 547
71 74 469
72 73 512
73 73 561
74 73 191
75 72 877
76 72 590
77 72 81
78 72 54
79 72 802
80 71 254
81 71 779
82 71 150
83 71 379
84 70 714
85 70 547
86 70 624
87 69 453
88 69 341
89 69 564
90 69 731
91 68 467
92 67 982
93 67 77
94 67 508
95 66 805
96 66 419
97 66 630
98 65 859
99 65 209
100 65 422
101 65 432
102 65 447
103 65 479
104 64 178
105 64 471
106 64 754
107 64 378
108 64 54
109 63 830
110 63 832
111 63 822
112 63 220
113 63 535
114 62 909
115 62 930
116 62 249
117 61 123
118 61 513
119 61 973
120 60 925
121 59 302
122 59 738
123 59 41
124 59 9
125 59 162
126 57 422
127 57 179
128 56 593
129 56 409
130 56 87
131 55 900
132 55 700
133 55 23
134 55 940
135 55 105
136 54 173
137 54 442
138 53 745
139 53 372
140 52 347
141 52 854
142 52 547
143 51 508
144 51 193
145 50 782
146 50 282
147 50 883
148 48 965
149 48 977
150 46 265
151 45 373
152 43 338
153 43 206
154 43 410
155 43 682
156 43 555
157 43 914
158 42 757
159 42 484
160 42 317
161 41 119
162 41 633
163 41 512
164 41 600
165 41 294
166 40 848
167 40 851
168 40 289
169 39 623
170 39 781
171 38 121
172 38 539
173 38 449
174 37 642
175 37 989
176 37 933
177 37 234
178 36 450
179 36 42
180 35 736
181 35 344
182 35 172
183 34 831
184 34 283
185 33 811
186 33 419
187 33 206
188 33 684
189 32 931
190 32 395
191 31 863
192 31 222
193 31 666
194 31 767
195 31 968
196 31 120
197 30 190
198 30 735
199 30 464
200 30 0
